\* Problem: Unknown *\

Maximize
 obj: + xp_0_0 + xp_0_1 + xp_0_2 + xp_0_3 + xp_0_4 + xp_0_5 + xp_0_6
 + xp_1_0 + xp_1_1 + xp_1_2 + xp_2_0 + xp_2_1 + xp_2_2 + xp_3_0 + xp_3_1
 + xp_3_2 + xp_3_3 + xp_4_0 + xp_5_0 + xp_5_1 + xp_5_2 + xp_6_0 + xp_6_1
 + xp_6_2 + xp_7_0 + xp_7_1 + xp_8_0 + xp_8_1 + xp_9_0 + xp_10_0
 + xp_11_0 + xp_11_1 + xp_11_2 + xp_11_3 + xp_12_0 + xp_13_0 + xp_13_1
 + xp_14_0 + xp_14_1 + xp_15_0 + xp_16_0 + xp_17_0 + xp_17_1 + xp_17_2
 + xp_17_3 + xp_17_4 + xp_17_5 + xp_18_0 + xp_18_1 + xp_18_2 + xp_19_0
 + xp_19_1 + xp_19_2 + xp_19_3 + xp_20_0 + xp_20_1 + xp_20_2 + xp_20_3
 + xp_21_0 + xp_21_1 + xp_21_2 + xp_21_3 + xp_21_4 + xp_22_0 + xp_22_1
 + xp_22_2 + xp_22_3 + xp_22_4 + xp_23_0 + xp_23_1 + xp_23_2 + xp_23_3
 + xp_23_4

Subject To
 r_1: 0 xp_0_0 <= 30
 r_2: + xp_22_4 + xp_6_2 + xp_5_1 + xp_2_2 <= 29.2225609756098
 r_3: + xp_23_4 + xp_21_4 + xp_18_2 <= 30
 r_4: + xp_17_3 + xp_15_0 <= 30
 r_5: + xp_18_0 <= 28.1610576923077
 r_6: + xp_18_1 <= 30
 r_7: + xp_20_2 <= 30
 r_8: + xp_22_1 + xp_11_3 + xp_5_2 + xp_3_3 + xp_3_2 + xp_2_1
 <= 29.2225609756098
 r_9: + xp_23_2 + xp_17_2 + xp_11_2 + xp_3_1 <= 30
 r_10: + xp_23_3 + xp_3_0 <= 30
 r_11: + xp_18_1 + xp_11_1 <= 28.1610576923077
 r_12: + xp_11_0 <= 30
 r_13: 0 xp_0_0 <= 30
 r_14: + xp_21_1 + xp_19_2 + xp_14_0 + xp_0_4 + xp_0_1
 <= 29.2225609756098
 r_15: + xp_21_0 + xp_19_3 <= 30
 r_16: + xp_21_2 + xp_19_1 + xp_0_5 + xp_0_2 <= 30
 r_17: + xp_0_0 <= 28.1610576923077
 r_18: + xp_21_4 + xp_4_0 <= 30
 r_19: + xp_19_0 <= 30
 r_20: + xp_21_3 + xp_14_1 + xp_0_6 + xp_0_3 <= 30
 r_21: + xp_20_1 <= 29.2225609756098
 r_22: + xp_21_1 + xp_7_1 <= 29.2225609756098
 r_23: + xp_22_4 + xp_22_3 + xp_22_1 + xp_17_4 + xp_3_2
 <= 29.2225609756098
 r_24: + xp_17_5 + xp_6_2 + xp_6_1 + xp_3_3 + xp_0_4 <= 29.2225609756098
 r_25: 0 xp_0_0 <= 29.2225609756098
 r_26: + xp_0_3 + xp_0_1 <= 28.1610576923077
 r_27: + xp_11_3 <= 29.2225609756098
 r_28: + xp_19_2 <= 29.2225609756098
 r_29: + xp_20_3 <= 30
 r_30: + xp_2_0 <= 29.2225609756098
 r_31: + xp_23_4 + xp_23_2 + xp_18_2 + xp_17_2 + xp_3_1 + xp_0_6 <= 30
 r_32: 0 xp_0_0 <= 30
 r_33: + xp_11_2 + xp_2_2 <= 30
 r_34: + xp_19_3 + xp_2_1 <= 30
 r_35: 0 xp_0_0 <= 30
 r_36: + xp_9_0 <= 29.2225609756098
 r_37: + xp_21_2 + xp_13_1 + xp_8_1 <= 30
 r_38: + xp_23_3 + xp_1_1 <= 30
 r_39: + xp_19_1 + xp_17_4 + xp_3_2 + xp_0_5 <= 30
 r_40: + xp_0_2 <= 28.1610576923077
 r_41: + xp_12_0 <= 29.2225609756098
 r_42: + xp_21_2 <= 30
 r_43: + xp_16_0 <= 30
 r_44: + xp_23_4 + xp_23_2 + xp_23_1 + xp_1_2 <= 30
 r_45: + xp_17_5 + xp_17_2 + xp_3_3 + xp_3_1 <= 30
 r_46: + xp_18_2 + xp_0_6 + xp_0_4 <= 28.1610576923077
 r_47: + xp_22_2 + xp_13_1 <= 30
 r_48: + xp_13_0 <= 30
 r_49: + xp_17_1 <= 30
 r_50: 0 xp_0_0 <= 28.1610576923077
 r_51: + xp_23_3 + xp_8_1 + xp_1_1 <= 30
 r_52: + xp_8_0 + xp_1_2 <= 30
 r_53: + xp_1_0 <= 30
 r_54: + xp_0_5 <= 28.1610576923077
 r_55: 0 xp_0_0 <= 30
 r_56: + xp_19_1 <= 30
 r_57: 0 xp_0_0 <= 28.1610576923077
 r_58: + xp_22_3 + xp_17_5 + xp_17_4 + xp_6_1 + xp_5_0
 <= 28.1610576923077
 r_59: + xp_22_0 <= 28.1610576923077
 r_60: + xp_23_1 + xp_6_0 <= 28.1610576923077
 r_61: + xp_23_0 + xp_22_2 + xp_17_1 <= 28.1610576923077
 r_62: + xp_17_0 <= 28.1610576923077
 r_63: + xp_23_4 + xp_22_4 + xp_17_3 + xp_11_1 + xp_6_2 + xp_5_1
 <= 28.1610576923077
 r_64: + xp_23_3 + xp_23_2 + xp_22_1 + xp_17_2 + xp_5_2
 <= 28.1610576923077
 r_65: + xp_20_1 + xp_14_1 + xp_7_1 + xp_0_3 <= 29.2225609756098
 r_66: + xp_21_3 + xp_20_3 + xp_7_0 + xp_0_6 <= 30
 r_67: + xp_20_2 + xp_10_0 <= 30
 r_68: + xp_20_0 <= 30

Bounds
 0 <= xp_0_0 <= 28.4810221481285
 0 <= xp_0_1 <= 5.89963204377538
 0 <= xp_0_2 <= 11.7992640875508
 0 <= xp_0_3 <= 5.89963204377538
 0 <= xp_0_4 <= 1.38335402290476
 0 <= xp_0_5 <= 4.51627802087062
 0 <= xp_0_6 <= 4.51627802087062
 0 <= xp_1_0 <= 22.0117519575807
 0 <= xp_1_1 <= 11.6636492911401
 0 <= xp_1_2 <= 1.3155466246994
 0 <= xp_2_0 <= 23.8155624316725
 0 <= xp_2_1 <= 4.51627802087062
 0 <= xp_2_2 <= 6.17086163659679
 0 <= xp_3_0 <= 24.2359917851914
 0 <= xp_3_1 <= 6.17087970170887
 0 <= xp_3_2 <= 0.827300840419123
 0 <= xp_3_3 <= 0.827300840419123
 0 <= xp_4_0 <= 26.039775161615
 0 <= xp_5_0 <= 13.0198875808075
 0 <= xp_5_1 <= 8.67992505387167
 0 <= xp_5_2 <= 4.33996252693584
 0 <= xp_6_0 <= 15.623865096969
 0 <= xp_6_1 <= 3.90596627424225
 0 <= xp_6_2 <= 3.90596627424225
 0 <= xp_7_0 <= 14.9728707179286
 0 <= xp_7_1 <= 7.48643535896432
 0 <= xp_8_0 <= 16.8173547918764
 0 <= xp_8_1 <= 3.36347095837527
 0 <= xp_9_0 <= 18.7160883974108
 0 <= xp_10_0 <= 18.7160883974108
 0 <= xp_11_0 <= 27.0976681252237
 0 <= xp_11_1 <= 4.51627802087062
 0 <= xp_11_2 <= 9.03255604174125
 0 <= xp_11_3 <= 13.5488340626119
 0 <= xp_12_0 <= 17.5768482340901
 0 <= xp_13_0 <= 14.2405020415082
 0 <= xp_13_1 <= 2.84810040830164
 0 <= xp_14_0 <= 10.8499063173396
 0 <= xp_14_1 <= 5.42495315866979
 0 <= xp_15_0 <= 16.1121108812493
 0 <= xp_16_0 <= 15.4611165022089
 0 <= xp_17_0 <= 28.6302038437139
 0 <= xp_17_1 <= 3.02440686968039
 0 <= xp_17_2 <= 3.02440686968039
 0 <= xp_17_3 <= 3.02440686968039
 0 <= xp_17_4 <= 4.51627802087062
 0 <= xp_17_5 <= 3.02440686968039
 0 <= xp_18_0 <= 22.5271044425423
 0 <= xp_18_1 <= 16.2477437427721
 0 <= xp_18_2 <= 4.51627802087062
 0 <= xp_19_0 <= 27.8164608699134
 0 <= xp_19_1 <= 2.61753538278015
 0 <= xp_19_2 <= 2.61753538278015
 0 <= xp_19_3 <= 9.75134878643093
 0 <= xp_20_0 <= 27.5452132119799
 0 <= xp_20_1 <= 6.99818957468403
 0 <= xp_20_2 <= 4.96382310762682
 0 <= xp_20_3 <= 2.48191155381341
 0 <= xp_21_0 <= 20.2486512135691
 0 <= xp_21_1 <= 4.36707826017314
 0 <= xp_21_2 <= 8.88335628104377
 0 <= xp_21_3 <= 4.51627802087062
 0 <= xp_21_4 <= 2.18353913008657
 0 <= xp_22_0 <= 29.0099595973768
 0 <= xp_22_1 <= 1.91229147215308
 0 <= xp_22_2 <= 3.82458294430616
 0 <= xp_22_3 <= 1.91229147215308
 0 <= xp_22_4 <= 1.91229147215308
 0 <= xp_23_0 <= 19.2857084790711
 0 <= xp_23_1 <= 10.9448475138943
 0 <= xp_23_2 <= 1.91229147215308
 0 <= xp_23_3 <= 4.51627802087062
 0 <= xp_23_4 <= 1.91229147215308

End
